n_res = 4;
rc = [ 12, 14, 10, 12 ];
n_tasks = 30;
d = [ 7, 1, 7, 8, 5, 3, 4, 4, 10, 7, 5, 5, 8, 6, 8, 5, 8, 10, 8, 5, 3, 7, 3, 5, 9, 7, 7, 9, 8, 8 ];
rr = [| 12, 12, 12, 12, 12, 12, 12, 12, 12, 12, 12, 12, 12, 12, 12, 12, 12, 12, 12, 12, 12, 12, 12, 12, 12, 12, 12, 12, 12, 12
      | 14, 14, 14, 14, 14, 14, 14, 14, 14, 14, 14, 14, 14, 14, 14, 14, 14, 14, 14, 14, 14, 14, 14, 14, 14, 14, 14, 14, 14, 14
      | 10, 10, 10, 10, 10, 10, 10, 10, 10, 10, 10, 10, 10, 10, 10, 10, 10, 10, 10, 10, 10, 10, 10, 10, 10, 10, 10, 10, 10, 10
      | 12, 12, 12, 12, 12, 12, 12, 12, 12, 12, 12, 12, 12, 12, 12, 12, 12, 12, 12, 12, 12, 12, 12, 12, 12, 12, 12, 12, 12, 12|];
suc = [ { 26, 30 },
       { 4, 5, 13 },
       { 11, 13, 16 },
       { 6, 7, 12 },
       { 8, 9, 21 },
       { 10, 14, 21 },
       { 14, 16, 24 },
       { 12, 19, 25 },
       { 12, 14, 24 },
       { 11, 15, 23 },
       { 17, 18, 27 },
       { 16, 20, 28 },
       { 17, 18, 21 },
       { 15, 17, 23 },
       { 22 },
       { 29 },
       { 20, 26, 28 },
       { 19 },
       { 20, 26 },
       { 22 },
       { 22, 23, 24 },
       { 30 },
       { 25, 27, 28 },
       { 25, 27 },
       { 30 },
       { 29 },
       { 29 },
       {  },
       {  },
       {  } ];
